WARNING: for repeatability, setting FPU to use double precision
============================[ Problem Statistics ]=============================
|                                                                             |
|  Number of variables:        250679                                         |
|  Number of clauses:          807738                                         |
|  Parse time:                   0.19 s                                       |
|                                                                             |
c ============================[ Search Statistics ]==============================
c | Conflicts |          ORIGINAL         |          LEARNT          | Progress |
c |           |    Vars  Clauses Literals |    Limit  Clauses Lit/Cl |          |
c ===============================================================================
c Switched to VSIDS.
c Switched to LRB.
c Switched to VSIDS.
c Switched to LRB.
c Switched to VSIDS.
c Switched to LRB.
c Switched to VSIDS.
c Switched to LRB.
c Switched to VSIDS.
c Switched to LRB.
c Switched to VSIDS.
c Switched to LRB.
c ===============================================================================
restarts                  : 521
conflicts                 : 64557          (357 /sec)
decisions                 : 363122588      (0.00 % random) (2006909 /sec)
propagations              : 920681692      (5088431 /sec)
conflict literals         : 1235580        (4.70 % deleted)

conflicts w/ DIP found    : 46635          (72.24 % of conflicts)
conflicts w/ dangerous DIP: 0              (0.00 % of conflicts)
conflicts w/ DIP-learning : 0              (0.00 % of conflicts)
decisions on ext vars     : 0              (0.00 % of decisions)
total ext vars            : 0           
tried delete ext vars     : 0           
deleted ext vars          : 0           
max ext vars              : 0           

Memory used               : 133.00 MB
CPU time                  : 180.936 s
DIP computation time      : 0.453032 s (0.25 % of total time)
ER_sel time               : 0.070691 s
ER_add time               : 0 s
ER_delC time              : 0 s
ER_delV time              : 0 s
ER_sub time               : 0.093262 s
ER_stat time              : 0 s

SATISFIABLE
